presolving:
(round 1, fast)       0 del vars, 0 del conss, 0 add conss, 0 chg bounds, 0 chg sides, 2727 chg coeffs, 0 upgd conss, 0 impls, 2800 clqs
   (0.0s) running MILP presolver
   (0.0s) MILP presolver found nothing
(round 2, exhaustive) 0 del vars, 0 del conss, 0 add conss, 0 chg bounds, 0 chg sides, 2727 chg coeffs, 2827 upgd conss, 0 impls, 2800 clqs
(round 3, fast)       0 del vars, 0 del conss, 0 add conss, 0 chg bounds, 0 chg sides, 5454 chg coeffs, 2827 upgd conss, 0 impls, 2800 clqs
(round 4, medium)     0 del vars, 2727 del conss, 2700 add conss, 0 chg bounds, 0 chg sides, 5454 chg coeffs, 2827 upgd conss, 0 impls, 2800 clqs
   (0.1s) probing: 51/2727 (1.9%) - 0 fixings, 0 aggregations, 0 implications, 0 bound changes
   (0.1s) probing aborted: 50/50 successive totally useless probings
   (0.1s) symmetry computation started: requiring (bin +, int -, cont +), (fixed: bin -, int +, cont -)
   (0.1s) no symmetry present
presolving (5 rounds: 5 fast, 3 medium, 2 exhaustive):
 0 deleted vars, 2727 deleted constraints, 2700 added constraints, 0 tightened bounds, 0 added holes, 0 changed sides, 5454 changed coefficients
 0 implications, 2800 cliques
presolved problem has 2727 variables (2727 bin, 0 int, 0 impl, 0 cont) and 2800 constraints
   2800 constraints of type <setppc>
Presolving Time: 0.11

 time | node  | left  |LP iter|LP it/n|mem/heur|mdpt |vars |cons |rows |cuts |sepa|confs|strbr|  dualbound   | primalbound  |  gap   | compl. 
p 0.1s|     1 |     0 |     0 |     - |  clique|   0 |2727 |2800 |2800 |   0 |  0 |   0 |   0 | 0.000000e+00 | 2.097012e+04 |    Inf | unknown
  0.2s|     1 |     0 |   822 |     - |    39M |   0 |2727 |2801 |2800 |   0 |  0 |   1 |   0 | 8.731828e+03 | 2.097012e+04 | 140.16%| unknown
r 0.2s|     1 |     0 |   822 |     - |rounding|   0 |2727 |2801 |2800 |   0 |  0 |   1 |   0 | 8.731828e+03 | 1.674623e+04 |  91.78%| unknown
  0.9s|     1 |     0 |   887 |     - |    41M |   0 |2727 |2801 |2804 |   4 |  1 |   1 |   0 | 8.744758e+03 | 1.674623e+04 |  91.50%| unknown
  1.7s|     1 |     0 |  1002 |     - |    46M |   0 |2727 |2801 |2809 |   9 |  2 |   1 |   0 | 8.764146e+03 | 1.674623e+04 |  91.08%| unknown
  2.8s|     1 |     0 |  1056 |     - |    51M |   0 |2727 |2801 |2811 |  11 |  3 |   1 |   0 | 8.773698e+03 | 1.674623e+04 |  90.87%| unknown
  3.8s|     1 |     0 |  1156 |     - |    59M |   0 |2727 |2801 |2813 |  13 |  4 |   1 |   0 | 8.786406e+03 | 1.674623e+04 |  90.59%| unknown
  4.8s|     1 |     0 |  1274 |     - |    62M |   0 |2727 |2801 |2815 |  15 |  5 |   1 |   0 | 8.793228e+03 | 1.674623e+04 |  90.44%| unknown
  5.0s|     1 |     0 |  1323 |     - |    63M |   0 |2727 |2801 |2816 |  16 |  6 |   1 |   0 | 8.794938e+03 | 1.674623e+04 |  90.41%| unknown
  5.1s|     1 |     0 |  1425 |     - |    63M |   0 |2727 |2801 |2818 |  18 |  7 |   1 |   0 | 8.803311e+03 | 1.674623e+04 |  90.23%| unknown
  5.3s|     1 |     0 |  1481 |     - |    63M |   0 |2727 |2801 |2820 |  20 |  8 |   1 |   0 | 8.812568e+03 | 1.674623e+04 |  90.03%| unknown
  5.5s|     1 |     0 |  1620 |     - |    64M |   0 |2727 |2801 |2822 |  22 |  9 |   1 |   0 | 8.818665e+03 | 1.674623e+04 |  89.90%| unknown
  5.6s|     1 |     0 |  1665 |     - |    64M |   0 |2727 |2801 |2823 |  23 | 10 |   1 |   0 | 8.820982e+03 | 1.674623e+04 |  89.85%| unknown
  5.7s|     1 |     0 |  1745 |     - |    64M |   0 |2727 |2801 |2824 |  25 | 11 |   1 |   0 | 8.823954e+03 | 1.674623e+04 |  89.78%| unknown
  5.8s|     1 |     0 |  1794 |     - |    65M |   0 |2727 |2801 |2825 |  26 | 12 |   1 |   0 | 8.825630e+03 | 1.674623e+04 |  89.75%| unknown
 time | node  | left  |LP iter|LP it/n|mem/heur|mdpt |vars |cons |rows |cuts |sepa|confs|strbr|  dualbound   | primalbound  |  gap   | compl. 
  5.9s|     1 |     0 |  1816 |     - |    65M |   0 |2727 |2801 |2826 |  27 | 13 |   1 |   0 | 8.826236e+03 | 1.674623e+04 |  89.73%| unknown
  5.9s|     1 |     0 |  1855 |     - |    65M |   0 |2727 |2801 |2828 |  29 | 14 |   1 |   0 | 8.827541e+03 | 1.674623e+04 |  89.70%| unknown
  6.0s|     1 |     0 |  1886 |     - |    65M |   0 |2727 |2801 |2830 |  31 | 15 |   1 |   0 | 8.828417e+03 | 1.674623e+04 |  89.69%| unknown
  6.1s|     1 |     0 |  2008 |     - |    66M |   0 |2727 |2801 |2832 |  33 | 16 |   1 |   0 | 8.830433e+03 | 1.674623e+04 |  89.64%| unknown
  6.2s|     1 |     0 |  2063 |     - |    66M |   0 |2727 |2801 |2831 |  34 | 17 |   1 |   0 | 8.832121e+03 | 1.674623e+04 |  89.61%| unknown
  6.2s|     1 |     0 |  2113 |     - |    66M |   0 |2727 |2801 |2832 |  35 | 18 |   1 |   0 | 8.833541e+03 | 1.674623e+04 |  89.58%| unknown
  6.3s|     1 |     0 |  2114 |     - |    66M |   0 |2727 |2801 |2833 |  36 | 20 |   1 |   0 | 8.833640e+03 | 1.674623e+04 |  89.57%| unknown
  6.4s|     1 |     0 |  2148 |     - |    67M |   0 |2727 |2801 |2834 |  37 | 21 |   1 |   0 | 8.834413e+03 | 1.674623e+04 |  89.56%| unknown
d 6.6s|     1 |     0 |  3249 |     - |farkasdi|   0 |2727 |2801 |2834 |   0 | 23 |   1 |   0 | 8.834413e+03 | 9.388569e+03 |   6.27%| unknown
  8.3s|     1 |     0 |  5996 |     - |    67M |   0 |2727 |2801 |2834 |  37 | 23 |   1 |   0 | 8.834413e+03 | 9.388569e+03 |   6.27%| unknown
  8.3s|     1 |     0 |  5996 |     - |    67M |   0 |2727 |2801 |2808 |  37 | 23 |   1 |   0 | 8.834413e+03 | 9.388569e+03 |   6.27%| unknown
  8.3s|     1 |     0 |  6014 |     - |    67M |   0 |2727 |2775 |2810 |  40 | 24 |   1 |   0 | 8.834575e+03 | 9.388569e+03 |   6.27%| unknown
 11.8s|     1 |     2 |  6014 |     - |    67M |   0 |2727 |2775 |2810 |  40 | 25 |   1 |  24 | 8.888245e+03 | 9.388569e+03 |   5.63%| unknown
*24.5s|    14 |     5 | 10343 | 629.0 |strongbr|   6 |2727 |2800 |2806 |  40 |  2 |  26 | 238 | 9.033693e+03 | 9.368956e+03 |   3.71%|  25.80%
*26.2s|    20 |     3 | 11807 | 507.4 |strongbr|   6 |2727 |2817 |2806 |  40 |  4 |  43 | 294 | 9.033693e+03 | 9.337242e+03 |   3.36%|  48.53%
 time | node  | left  |LP iter|LP it/n|mem/heur|mdpt |vars |cons |rows |cuts |sepa|confs|strbr|  dualbound   | primalbound  |  gap   | compl. 
*26.4s|    21 |     2 | 11977 | 490.6 |strongbr|   6 |2727 |2820 |2806 |  40 |  2 |  46 | 302 | 9.033693e+03 | 9.296467e+03 |   2.91%|  50.82%

SCIP Status        : problem is solved [optimal solution found]
Solving Time (sec) : 28.79
Solving Nodes      : 27
Primal Bound       : +9.29646721838229e+03 (8 solutions)
Dual Bound         : +9.29646721838229e+03
Gap                : 0.00 %
Solve Status: optimal
Solve Time: 28.79 seconds
